NAME : X-n411-k19
COMMENT : "Generated by Uchoa, Pecin, Pessoa, Poggi, Subramanian, and Vidal (2013)"
TYPE : CVRP
DIMENSION : 411
EDGE_WEIGHT_TYPE : EUC_2D
CAPACITY : 216
NODE_COORD_SECTION
1 175 821
2 62 495
3 662 959
4 109 216
5 156 748
6 178 957
7 120 571
8 75 480
9 44 98
10 386 1000
11 96 465
12 98 796
13 213 642
14 642 977
15 629 893
16 36 124
17 155 172
18 6 367
19 39 198
20 40 311
21 649 801
22 208 367
23 237 944
24 282 313
25 114 684
26 69 168
27 23 553
28 137 467
29 244 971
30 86 456
31 125 681
32 77 398
33 128 820
34 166 804
35 657 959
36 160 172
37 674 882
38 255 944
39 709 691
40 167 720
41 187 995
42 246 707
43 95 518
44 44 264
45 262 940
46 739 987
47 210 586
48 240 994
49 199 564
50 108 491
51 832 933
52 715 874
53 130 426
54 518 749
55 90 209
56 760 925
57 118 92
58 72 270
59 606 976
60 129 975
61 157 787
62 626 857
63 169 712
64 105 710
65 105 233
66 65 322
67 685 804
68 215 664
69 211 996
70 336 887
71 728 533
72 649 836
73 93 905
74 143 894
75 47 136
76 198 125
77 707 977
78 682 937
79 17 858
80 370 512
81 222 825
82 55 388
83 182 905
84 41 510
85 128 221
86 266 796
87 349 821
88 108 777
89 98 842
90 225 528
91 140 920
92 132 465
93 132 478
94 126 754
95 144 476
96 138 981
97 127 302
98 163 937
99 11 794
100 663 942
101 138 464
102 27 134
103 213 819
104 150 746
105 184 760
106 122 579
107 180 670
108 166 955
109 111 284
110 222 859
111 104 951
112 162 968
113 73 394
114 620 899
115 193 257
116 52 737
117 655 914
118 110 440
119 232 648
120 645 922
121 204 708
122 52 512
123 161 887
124 46 259
125 151 777
126 191 999
127 125 766
128 247 686
129 68 464
130 5 393
131 696 937
132 642 902
133 86 905
134 132 600
135 115 788
136 126 801
137 58 479
138 637 926
139 147 765
140 145 772
141 592 971
142 58 195
143 236 969
144 729 986
145 204 931
146 731 958
147 616 999
148 234 458
149 0 48
150 138 215
151 82 268
152 661 893
153 828 769
154 587 942
155 631 978
156 64 297
157 257 671
158 158 185
159 190 183
160 127 166
161 75 564
162 26 818
163 157 888
164 97 174
165 53 210
166 255 551
167 93 135
168 303 976
169 139 824
170 144 824
171 166 971
172 23 468
173 195 983
174 73 379
175 182 177
176 118 595
177 192 702
178 355 701
179 63 190
180 164 489
181 228 918
182 746 859
183 190 958
184 162 797
185 587 963
186 113 97
187 119 363
188 82 200
189 93 167
190 679 707
191 139 264
192 164 569
193 751 803
194 22 100
195 143 744
196 217 890
197 55 196
198 792 923
199 226 907
200 584 877
201 786 815
202 139 121
203 179 742
204 749 909
205 198 934
206 252 809
207 70 115
208 309 976
209 191 915
210 333 77
211 82 928
212 78 497
213 11 624
214 642 915
215 71 75
216 547 981
217 271 936
218 662 981
219 214 918
220 677 991
221 8 272
222 492 817
223 49 230
224 109 241
225 33 514
226 130 276
227 178 969
228 309 966
229 100 444
230 27 507
231 702 937
232 255 943
233 123 135
234 88 408
235 124 772
236 648 973
237 662 952
238 233 834
239 280 828
240 150 753
241 70 339
242 120 919
243 572 980
244 135 814
245 3 464
246 38 618
247 76 755
248 34 399
249 88 671
250 23 336
251 201 544
252 733 850
253 38 527
254 46 502
255 686 952
256 653 958
257 770 920
258 158 769
259 211 709
260 96 761
261 190 120
262 515 841
263 107 915
264 187 932
265 34 241
266 101 968
267 228 938
268 152 397
269 163 188
270 843 942
271 208 922
272 166 931
273 455 984
274 606 962
275 553 894
276 343 894
277 223 717
278 142 957
279 693 899
280 118 725
281 353 838
282 52 328
283 14 295
284 771 850
285 151 231
286 203 330
287 79 391
288 151 387
289 97 308
290 284 14
291 159 932
292 261 204
293 60 570
294 91 607
295 14 532
296 182 728
297 204 978
298 741 786
299 119 191
300 118 904
301 146 583
302 164 263
303 50 718
304 56 420
305 50 493
306 267 934
307 740 904
308 23 212
309 42 967
310 611 889
311 236 932
312 427 892
313 9 509
314 169 271
315 197 741
316 199 789
317 82 610
318 123 468
319 70 729
320 63 443
321 142 539
322 196 229
323 602 561
324 650 992
325 663 947
326 73 790
327 135 782
328 556 1000
329 196 361
330 240 972
331 42 552
332 72 256
333 271 641
334 69 193
335 138 389
336 140 486
337 173 996
338 138 797
339 10 520
340 297 643
341 92 946
342 104 549
343 290 691
344 213 479
345 131 996
346 233 702
347 82 351
348 177 923
349 118 903
350 69 740
351 59 163
352 48 503
353 14 424
354 147 277
355 170 717
356 129 792
357 719 946
358 176 497
359 245 503
360 174 535
361 167 891
362 668 911
363 236 621
364 197 529
365 152 714
366 585 950
367 587 930
368 182 640
369 219 944
370 98 706
371 278 544
372 216 873
373 76 744
374 189 251
375 138 183
376 12 916
377 150 954
378 20 596
379 178 189
380 144 219
381 643 943
382 728 986
383 125 874
384 158 198
385 181 289
386 215 625
387 107 321
388 571 920
389 110 461
390 101 592
391 96 684
392 579 816
393 645 947
394 777 894
395 806 973
396 118 790
397 195 927
398 157 944
399 235 784
400 256 895
401 15 431
402 233 962
403 793 774
404 127 185
405 704 965
406 234 634
407 664 948
408 29 604
409 278 697
410 686 985
411 151 795
PICKUP_AND_DELIVERY_SECTION
1 0 0 1000000000 0 0 0
2 0 0 1000000000 0 0 95
3 0 0 1000000000 0 58 0
4 0 0 1000000000 0 0 80
5 0 0 1000000000 0 97 0
6 0 0 1000000000 0 0 100
7 0 0 1000000000 0 64 0
8 0 0 1000000000 0 0 63
9 0 0 1000000000 0 86 0
10 0 0 1000000000 0 0 61
11 0 0 1000000000 0 62 0
12 0 0 1000000000 0 0 56
13 0 0 1000000000 0 74 0
14 0 0 1000000000 0 0 78
15 0 0 1000000000 0 78 0
16 0 0 1000000000 0 0 91
17 0 0 1000000000 0 85 0
18 0 0 1000000000 0 0 69
19 0 0 1000000000 0 89 0
20 0 0 1000000000 0 0 83
21 0 0 1000000000 0 60 0
22 0 0 1000000000 0 0 51
23 0 0 1000000000 0 55 0
24 0 0 1000000000 0 0 57
25 0 0 1000000000 0 83 0
26 0 0 1000000000 0 0 67
27 0 0 1000000000 0 89 0
28 0 0 1000000000 0 0 6
29 0 0 1000000000 0 1 0
30 0 0 1000000000 0 0 1
31 0 0 1000000000 0 7 0
32 0 0 1000000000 0 0 2
33 0 0 1000000000 0 1 0
34 0 0 1000000000 0 0 4
35 0 0 1000000000 0 6 0
36 0 0 1000000000 0 0 3
37 0 0 1000000000 0 10 0
38 0 0 1000000000 0 0 5
39 0 0 1000000000 0 10 0
40 0 0 1000000000 0 0 1
41 0 0 1000000000 0 7 0
42 0 0 1000000000 0 0 10
43 0 0 1000000000 0 6 0
44 0 0 1000000000 0 0 8
45 0 0 1000000000 0 4 0
46 0 0 1000000000 0 0 5
47 0 0 1000000000 0 4 0
48 0 0 1000000000 0 0 4
49 0 0 1000000000 0 3 0
50 0 0 1000000000 0 0 10
51 0 0 1000000000 0 7 0
52 0 0 1000000000 0 0 10
53 0 0 1000000000 0 9 0
54 0 0 1000000000 0 0 4
55 0 0 1000000000 0 3 0
56 0 0 1000000000 0 0 7
57 0 0 1000000000 0 4 0
58 0 0 1000000000 0 0 2
59 0 0 1000000000 0 9 0
60 0 0 1000000000 0 0 3
61 0 0 1000000000 0 4 0
62 0 0 1000000000 0 0 8
63 0 0 1000000000 0 2 0
64 0 0 1000000000 0 0 9
65 0 0 1000000000 0 3 0
66 0 0 1000000000 0 0 1
67 0 0 1000000000 0 5 0
68 0 0 1000000000 0 0 3
69 0 0 1000000000 0 8 0
70 0 0 1000000000 0 0 7
71 0 0 1000000000 0 1 0
72 0 0 1000000000 0 0 3
73 0 0 1000000000 0 7 0
74 0 0 1000000000 0 0 10
75 0 0 1000000000 0 1 0
76 0 0 1000000000 0 0 7
77 0 0 1000000000 0 7 0
78 0 0 1000000000 0 0 2
79 0 0 1000000000 0 2 0
80 0 0 1000000000 0 0 3
81 0 0 1000000000 0 6 0
82 0 0 1000000000 0 0 8
83 0 0 1000000000 0 3 0
84 0 0 1000000000 0 0 7
85 0 0 1000000000 0 5 0
86 0 0 1000000000 0 0 5
87 0 0 1000000000 0 8 0
88 0 0 1000000000 0 0 6
89 0 0 1000000000 0 3 0
90 0 0 1000000000 0 0 4
91 0 0 1000000000 0 3 0
92 0 0 1000000000 0 0 5
93 0 0 1000000000 0 2 0
94 0 0 1000000000 0 0 5
95 0 0 1000000000 0 7 0
96 0 0 1000000000 0 0 1
97 0 0 1000000000 0 2 0
98 0 0 1000000000 0 0 2
99 0 0 1000000000 0 3 0
100 0 0 1000000000 0 0 8
101 0 0 1000000000 0 8 0
102 0 0 1000000000 0 0 9
103 0 0 1000000000 0 8 0
104 0 0 1000000000 0 0 1
105 0 0 1000000000 0 1 0
106 0 0 1000000000 0 0 5
107 0 0 1000000000 0 9 0
108 0 0 1000000000 0 0 3
109 0 0 1000000000 0 7 0
110 0 0 1000000000 0 0 9
111 0 0 1000000000 0 1 0
112 0 0 1000000000 0 0 9
113 0 0 1000000000 0 9 0
114 0 0 1000000000 0 0 2
115 0 0 1000000000 0 9 0
116 0 0 1000000000 0 0 1
117 0 0 1000000000 0 4 0
118 0 0 1000000000 0 0 8
119 0 0 1000000000 0 2 0
120 0 0 1000000000 0 0 3
121 0 0 1000000000 0 8 0
122 0 0 1000000000 0 0 3
123 0 0 1000000000 0 2 0
124 0 0 1000000000 0 0 5
125 0 0 1000000000 0 9 0
126 0 0 1000000000 0 0 3
127 0 0 1000000000 0 6 0
128 0 0 1000000000 0 0 2
129 0 0 1000000000 0 3 0
130 0 0 1000000000 0 0 9
131 0 0 1000000000 0 2 0
132 0 0 1000000000 0 0 2
133 0 0 1000000000 0 1 0
134 0 0 1000000000 0 0 2
135 0 0 1000000000 0 3 0
136 0 0 1000000000 0 0 7
137 0 0 1000000000 0 2 0
138 0 0 1000000000 0 0 7
139 0 0 1000000000 0 4 0
140 0 0 1000000000 0 0 8
141 0 0 1000000000 0 6 0
142 0 0 1000000000 0 0 8
143 0 0 1000000000 0 5 0
144 0 0 1000000000 0 0 4
145 0 0 1000000000 0 3 0
146 0 0 1000000000 0 0 4
147 0 0 1000000000 0 6 0
148 0 0 1000000000 0 0 5
149 0 0 1000000000 0 7 0
150 0 0 1000000000 0 0 3
151 0 0 1000000000 0 5 0
152 0 0 1000000000 0 0 9
153 0 0 1000000000 0 10 0
154 0 0 1000000000 0 0 9
155 0 0 1000000000 0 9 0
156 0 0 1000000000 0 0 5
157 0 0 1000000000 0 5 0
158 0 0 1000000000 0 0 5
159 0 0 1000000000 0 1 0
160 0 0 1000000000 0 0 2
161 0 0 1000000000 0 7 0
162 0 0 1000000000 0 0 6
163 0 0 1000000000 0 4 0
164 0 0 1000000000 0 0 6
165 0 0 1000000000 0 1 0
166 0 0 1000000000 0 0 1
167 0 0 1000000000 0 10 0
168 0 0 1000000000 0 0 4
169 0 0 1000000000 0 1 0
170 0 0 1000000000 0 0 9
171 0 0 1000000000 0 9 0
172 0 0 1000000000 0 0 4
173 0 0 1000000000 0 6 0
174 0 0 1000000000 0 0 3
175 0 0 1000000000 0 6 0
176 0 0 1000000000 0 0 1
177 0 0 1000000000 0 2 0
178 0 0 1000000000 0 0 6
179 0 0 1000000000 0 9 0
180 0 0 1000000000 0 0 10
181 0 0 1000000000 0 8 0
182 0 0 1000000000 0 0 5
183 0 0 1000000000 0 1 0
184 0 0 1000000000 0 0 8
185 0 0 1000000000 0 2 0
186 0 0 1000000000 0 0 7
187 0 0 1000000000 0 6 0
188 0 0 1000000000 0 0 8
189 0 0 1000000000 0 5 0
190 0 0 1000000000 0 0 3
191 0 0 1000000000 0 3 0
192 0 0 1000000000 0 0 6
193 0 0 1000000000 0 6 0
194 0 0 1000000000 0 0 5
195 0 0 1000000000 0 3 0
196 0 0 1000000000 0 0 3
197 0 0 1000000000 0 8 0
198 0 0 1000000000 0 0 6
199 0 0 1000000000 0 1 0
200 0 0 1000000000 0 0 5
201 0 0 1000000000 0 2 0
202 0 0 1000000000 0 0 4
203 0 0 1000000000 0 4 0
204 0 0 1000000000 0 0 4
205 0 0 1000000000 0 1 0
206 0 0 1000000000 0 0 5
207 0 0 1000000000 0 6 0
208 0 0 1000000000 0 0 2
209 0 0 1000000000 0 8 0
210 0 0 1000000000 0 0 2
211 0 0 1000000000 0 9 0
212 0 0 1000000000 0 0 10
213 0 0 1000000000 0 9 0
214 0 0 1000000000 0 0 5
215 0 0 1000000000 0 2 0
216 0 0 1000000000 0 0 1
217 0 0 1000000000 0 7 0
218 0 0 1000000000 0 0 9
219 0 0 1000000000 0 6 0
220 0 0 1000000000 0 0 6
221 0 0 1000000000 0 1 0
222 0 0 1000000000 0 0 10
223 0 0 1000000000 0 6 0
224 0 0 1000000000 0 0 4
225 0 0 1000000000 0 4 0
226 0 0 1000000000 0 0 8
227 0 0 1000000000 0 9 0
228 0 0 1000000000 0 0 6
229 0 0 1000000000 0 7 0
230 0 0 1000000000 0 0 1
231 0 0 1000000000 0 8 0
232 0 0 1000000000 0 0 2
233 0 0 1000000000 0 6 0
234 0 0 1000000000 0 0 3
235 0 0 1000000000 0 4 0
236 0 0 1000000000 0 0 10
237 0 0 1000000000 0 2 0
238 0 0 1000000000 0 0 8
239 0 0 1000000000 0 7 0
240 0 0 1000000000 0 0 9
241 0 0 1000000000 0 3 0
242 0 0 1000000000 0 0 3
243 0 0 1000000000 0 8 0
244 0 0 1000000000 0 0 7
245 0 0 1000000000 0 2 0
246 0 0 1000000000 0 0 5
247 0 0 1000000000 0 10 0
248 0 0 1000000000 0 0 2
249 0 0 1000000000 0 7 0
250 0 0 1000000000 0 0 7
251 0 0 1000000000 0 1 0
252 0 0 1000000000 0 0 1
253 0 0 1000000000 0 4 0
254 0 0 1000000000 0 0 9
255 0 0 1000000000 0 2 0
256 0 0 1000000000 0 0 1
257 0 0 1000000000 0 3 0
258 0 0 1000000000 0 0 7
259 0 0 1000000000 0 7 0
260 0 0 1000000000 0 0 7
261 0 0 1000000000 0 10 0
262 0 0 1000000000 0 0 8
263 0 0 1000000000 0 3 0
264 0 0 1000000000 0 0 7
265 0 0 1000000000 0 8 0
266 0 0 1000000000 0 0 10
267 0 0 1000000000 0 10 0
268 0 0 1000000000 0 0 4
269 0 0 1000000000 0 3 0
270 0 0 1000000000 0 0 3
271 0 0 1000000000 0 4 0
272 0 0 1000000000 0 0 5
273 0 0 1000000000 0 1 0
274 0 0 1000000000 0 0 2
275 0 0 1000000000 0 9 0
276 0 0 1000000000 0 0 3
277 0 0 1000000000 0 9 0
278 0 0 1000000000 0 0 9
279 0 0 1000000000 0 9 0
280 0 0 1000000000 0 0 2
281 0 0 1000000000 0 5 0
282 0 0 1000000000 0 0 3
283 0 0 1000000000 0 4 0
284 0 0 1000000000 0 0 6
285 0 0 1000000000 0 7 0
286 0 0 1000000000 0 0 2
287 0 0 1000000000 0 4 0
288 0 0 1000000000 0 0 8
289 0 0 1000000000 0 5 0
290 0 0 1000000000 0 0 6
291 0 0 1000000000 0 8 0
292 0 0 1000000000 0 0 9
293 0 0 1000000000 0 8 0
294 0 0 1000000000 0 0 9
295 0 0 1000000000 0 10 0
296 0 0 1000000000 0 0 3
297 0 0 1000000000 0 7 0
298 0 0 1000000000 0 0 7
299 0 0 1000000000 0 6 0
300 0 0 1000000000 0 0 1
301 0 0 1000000000 0 5 0
302 0 0 1000000000 0 0 4
303 0 0 1000000000 0 7 0
304 0 0 1000000000 0 0 3
305 0 0 1000000000 0 3 0
306 0 0 1000000000 0 0 1
307 0 0 1000000000 0 5 0
308 0 0 1000000000 0 0 1
309 0 0 1000000000 0 4 0
310 0 0 1000000000 0 0 9
311 0 0 1000000000 0 9 0
312 0 0 1000000000 0 0 5
313 0 0 1000000000 0 3 0
314 0 0 1000000000 0 0 1
315 0 0 1000000000 0 7 0
316 0 0 1000000000 0 0 4
317 0 0 1000000000 0 4 0
318 0 0 1000000000 0 0 1
319 0 0 1000000000 0 4 0
320 0 0 1000000000 0 0 8
321 0 0 1000000000 0 2 0
322 0 0 1000000000 0 0 7
323 0 0 1000000000 0 5 0
324 0 0 1000000000 0 0 4
325 0 0 1000000000 0 5 0
326 0 0 1000000000 0 0 8
327 0 0 1000000000 0 10 0
328 0 0 1000000000 0 0 3
329 0 0 1000000000 0 9 0
330 0 0 1000000000 0 0 6
331 0 0 1000000000 0 2 0
332 0 0 1000000000 0 0 1
333 0 0 1000000000 0 2 0
334 0 0 1000000000 0 0 2
335 0 0 1000000000 0 9 0
336 0 0 1000000000 0 0 6
337 0 0 1000000000 0 2 0
338 0 0 1000000000 0 0 4
339 0 0 1000000000 0 8 0
340 0 0 1000000000 0 0 4
341 0 0 1000000000 0 9 0
342 0 0 1000000000 0 0 7
343 0 0 1000000000 0 5 0
344 0 0 1000000000 0 0 2
345 0 0 1000000000 0 3 0
346 0 0 1000000000 0 0 2
347 0 0 1000000000 0 3 0
348 0 0 1000000000 0 0 7
349 0 0 1000000000 0 6 0
350 0 0 1000000000 0 0 9
351 0 0 1000000000 0 4 0
352 0 0 1000000000 0 0 3
353 0 0 1000000000 0 8 0
354 0 0 1000000000 0 0 2
355 0 0 1000000000 0 10 0
356 0 0 1000000000 0 0 5
357 0 0 1000000000 0 3 0
358 0 0 1000000000 0 0 6
359 0 0 1000000000 0 7 0
360 0 0 1000000000 0 0 9
361 0 0 1000000000 0 4 0
362 0 0 1000000000 0 0 10
363 0 0 1000000000 0 3 0
364 0 0 1000000000 0 0 7
365 0 0 1000000000 0 5 0
366 0 0 1000000000 0 0 1
367 0 0 1000000000 0 3 0
368 0 0 1000000000 0 0 4
369 0 0 1000000000 0 10 0
370 0 0 1000000000 0 0 2
371 0 0 1000000000 0 1 0
372 0 0 1000000000 0 0 3
373 0 0 1000000000 0 6 0
374 0 0 1000000000 0 0 6
375 0 0 1000000000 0 8 0
376 0 0 1000000000 0 0 7
377 0 0 1000000000 0 9 0
378 0 0 1000000000 0 0 9
379 0 0 1000000000 0 5 0
380 0 0 1000000000 0 0 7
381 0 0 1000000000 0 6 0
382 0 0 1000000000 0 0 8
383 0 0 1000000000 0 8 0
384 0 0 1000000000 0 0 6
385 0 0 1000000000 0 5 0
386 0 0 1000000000 0 0 4
387 0 0 1000000000 0 6 0
388 0 0 1000000000 0 0 4
389 0 0 1000000000 0 5 0
390 0 0 1000000000 0 0 6
391 0 0 1000000000 0 2 0
392 0 0 1000000000 0 0 3
393 0 0 1000000000 0 5 0
394 0 0 1000000000 0 0 1
395 0 0 1000000000 0 1 0
396 0 0 1000000000 0 0 2
397 0 0 1000000000 0 7 0
398 0 0 1000000000 0 0 2
399 0 0 1000000000 0 2 0
400 0 0 1000000000 0 0 2
401 0 0 1000000000 0 10 0
402 0 0 1000000000 0 0 8
403 0 0 1000000000 0 6 0
404 0 0 1000000000 0 0 2
405 0 0 1000000000 0 8 0
406 0 0 1000000000 0 0 8
407 0 0 1000000000 0 1 0
408 0 0 1000000000 0 0 1
409 0 0 1000000000 0 2 0
410 0 0 1000000000 0 0 5
411 0 0 1000000000 0 4 0
